problems/csplib-prob015/SchursLemma-models/noch/O2/lingeling/model_1_3-3-9-solution000001.eprime-solution
language ESSENCE' 1.0

letting boxes_PartitionAsSet_ExplicitR5_ExplicitVarSizeWithMarker_Marker be [3, 3, 3; int(1..3)]
letting boxes_PartitionAsSet_ExplicitR5_ExplicitVarSizeWithMarker_Values be
        [[1, 2, 8, 1, 1, 1, 1, 1, 1; int(1..9)], [3, 5, 6, 1, 1, 1, 1, 1, 1; int(1..9)],
         [4, 7, 9, 1, 1, 1, 1, 1, 1; int(1..9)]; int(1..3)]
