problems/csplib-prob015/SchursLemma-models/noch/O2/lingeling/model_1_3-3-9-solution000001.solution
language Essence 1.3

letting boxes be partition({1, 2, 8}, {3, 5, 6}, {4, 7, 9})
